p cnf 550 1617
-3 -4 51 0
3 -4 -51 0
-3 4 -51 0
3 4 51 0
-5 -6 52 0
5 -6 -52 0
-5 6 -52 0
5 6 52 0
-8 9 53 0
8 9 -53 0
-8 -9 -53 0
8 -9 53 0
10 -11 54 0
-10 -11 -54 0
10 11 -54 0
-10 11 54 0
-12 -14 55 0
12 -14 -55 0
-12 14 -55 0
12 14 55 0
16 -19 56 0
-16 -19 -56 0
16 19 -56 0
-16 19 56 0
-23 -25 57 0
23 -25 -57 0
-23 25 -57 0
23 25 57 0
26 -30 58 0
-26 -30 -58 0
26 30 -58 0
-26 30 58 0
31 34 59 0
-31 34 -59 0
31 -34 -59 0
-31 -34 59 0
35 38 60 0
-35 38 -60 0
35 -38 -60 0
-35 -38 60 0
-39 40 61 0
39 40 -61 0
-39 -40 -61 0
39 -40 61 0
-41 45 62 0
41 45 -62 0
-41 -45 -62 0
41 -45 62 0
47 48 63 0
-47 48 -63 0
47 -48 -63 0
-47 -48 63 0
-49 -50 64 0
49 -50 -64 0
-49 50 -64 0
49 50 64 0
51 -52 65 0
-51 -52 -65 0
51 52 -65 0
-51 52 65 0
53 -54 66 0
-53 -54 -66 0
53 54 -66 0
-53 54 66 0
55 -56 67 0
-55 -56 -67 0
55 56 -67 0
-55 56 67 0
57 -58 68 0
-57 -58 -68 0
57 58 -68 0
-57 58 68 0
59 -60 69 0
-59 -60 -69 0
59 60 -69 0
-59 60 69 0
61 -62 70 0
-61 -62 -70 0
61 62 -70 0
-61 62 70 0
63 -64 71 0
-63 -64 -71 0
63 64 -71 0
-63 64 71 0
65 -66 72 0
-65 -66 -72 0
65 66 -72 0
-65 66 72 0
67 -68 73 0
-67 -68 -73 0
67 68 -73 0
-67 68 73 0
69 -70 74 0
-69 -70 -74 0
69 70 -74 0
-69 70 74 0
71 -72 75 0
-71 -72 -75 0
71 72 -75 0
-71 72 75 0
73 -74 76 0
-73 -74 -76 0
73 74 -76 0
-73 74 76 0
75 76 0
-75 -76 0
1 3 77 0
-1 3 -77 0
1 -3 -77 0
-1 -3 77 0
-6 -10 78 0
6 -10 -78 0
-6 10 -78 0
6 10 78 0
-11 -12 79 0
11 -12 -79 0
-11 12 -79 0
11 12 79 0
13 -14 80 0
-13 -14 -80 0
13 14 -80 0
-13 14 80 0
-16 -22 81 0
16 -22 -81 0
-16 22 -81 0
16 22 81 0
-23 24 82 0
23 24 -82 0
-23 -24 -82 0
23 -24 82 0
-25 26 83 0
25 26 -83 0
-25 -26 -83 0
25 -26 83 0
-27 -28 84 0
27 -28 -84 0
-27 28 -84 0
27 28 84 0
-30 32 85 0
30 32 -85 0
-30 -32 -85 0
30 -32 85 0
33 34 86 0
-33 34 -86 0
33 -34 -86 0
-33 -34 86 0
-35 -36 87 0
35 -36 -87 0
-35 36 -87 0
35 36 87 0
39 -42 88 0
-39 -42 -88 0
39 42 -88 0
-39 42 88 0
-43 44 89 0
43 44 -89 0
-43 -44 -89 0
43 -44 89 0
-45 46 90 0
45 46 -90 0
-45 -46 -90 0
45 -46 90 0
47 49 91 0
-47 49 -91 0
47 -49 -91 0
-47 -49 91 0
77 -78 92 0
-77 -78 -92 0
77 78 -92 0
-77 78 92 0
79 -80 93 0
-79 -80 -93 0
79 80 -93 0
-79 80 93 0
81 -82 94 0
-81 -82 -94 0
81 82 -94 0
-81 82 94 0
83 -84 95 0
-83 -84 -95 0
83 84 -95 0
-83 84 95 0
85 -86 96 0
-85 -86 -96 0
85 86 -96 0
-85 86 96 0
87 -88 97 0
-87 -88 -97 0
87 88 -97 0
-87 88 97 0
89 -90 98 0
-89 -90 -98 0
89 90 -98 0
-89 90 98 0
91 -92 99 0
-91 -92 -99 0
91 92 -99 0
-91 92 99 0
93 -94 100 0
-93 -94 -100 0
93 94 -100 0
-93 94 100 0
95 -96 101 0
-95 -96 -101 0
95 96 -101 0
-95 96 101 0
97 -98 102 0
-97 -98 -102 0
97 98 -102 0
-97 98 102 0
99 -100 103 0
-99 -100 -103 0
99 100 -103 0
-99 100 103 0
101 -102 104 0
-101 -102 -104 0
101 102 -104 0
-101 102 104 0
103 104 0
-103 -104 0
1 -2 105 0
-1 -2 -105 0
1 2 -105 0
-1 2 105 0
-3 -4 106 0
3 -4 -106 0
-3 4 -106 0
3 4 106 0
5 6 107 0
-5 6 -107 0
5 -6 -107 0
-5 -6 107 0
-10 -12 108 0
10 -12 -108 0
-10 12 -108 0
10 12 108 0
13 15 109 0
-13 15 -109 0
13 -15 -109 0
-13 -15 109 0
18 20 110 0
-18 20 -110 0
18 -20 -110 0
-18 -20 110 0
25 26 111 0
-25 26 -111 0
25 -26 -111 0
-25 -26 111 0
-28 30 112 0
28 30 -112 0
-28 -30 -112 0
28 -30 112 0
-31 -32 113 0
31 -32 -113 0
-31 32 -113 0
31 32 113 0
-33 -35 114 0
33 -35 -114 0
-33 35 -114 0
33 35 114 0
37 39 115 0
-37 39 -115 0
37 -39 -115 0
-37 -39 115 0
-43 47 116 0
43 47 -116 0
-43 -47 -116 0
43 -47 116 0
104 -105 117 0
-104 -105 -117 0
104 105 -117 0
-104 105 117 0
106 -107 118 0
-106 -107 -118 0
106 107 -118 0
-106 107 118 0
108 -109 119 0
-108 -109 -119 0
108 109 -119 0
-108 109 119 0
110 -111 120 0
-110 -111 -120 0
110 111 -120 0
-110 111 120 0
112 -113 121 0
-112 -113 -121 0
112 113 -121 0
-112 113 121 0
114 -115 122 0
-114 -115 -122 0
114 115 -122 0
-114 115 122 0
116 -117 123 0
-116 -117 -123 0
116 117 -123 0
-116 117 123 0
118 -119 124 0
-118 -119 -124 0
118 119 -124 0
-118 119 124 0
120 -121 125 0
-120 -121 -125 0
120 121 -125 0
-120 121 125 0
122 -123 126 0
-122 -123 -126 0
122 123 -126 0
-122 123 126 0
124 -125 127 0
-124 -125 -127 0
124 125 -127 0
-124 125 127 0
126 127 0
-126 -127 0
2 4 128 0
-2 4 -128 0
2 -4 -128 0
-2 -4 128 0
9 10 129 0
-9 10 -129 0
9 -10 -129 0
-9 -10 129 0
-14 -15 130 0
14 -15 -130 0
-14 15 -130 0
14 15 130 0
-18 -20 131 0
18 -20 -131 0
-18 20 -131 0
18 20 131 0
26 28 132 0
-26 28 -132 0
26 -28 -132 0
-26 -28 132 0
35 -36 133 0
-35 -36 -133 0
35 36 -133 0
-35 36 133 0
38 -41 134 0
-38 -41 -134 0
38 41 -134 0
-38 41 134 0
-43 44 135 0
43 44 -135 0
-43 -44 -135 0
43 -44 135 0
-46 -47 136 0
46 -47 -136 0
-46 47 -136 0
46 47 136 0
-48 -49 137 0
48 -49 -137 0
-48 49 -137 0
48 49 137 0
127 -128 138 0
-127 -128 -138 0
127 128 -138 0
-127 128 138 0
129 -130 139 0
-129 -130 -139 0
129 130 -139 0
-129 130 139 0
131 -132 140 0
-131 -132 -140 0
131 132 -140 0
-131 132 140 0
133 -134 141 0
-133 -134 -141 0
133 134 -141 0
-133 134 141 0
135 -136 142 0
-135 -136 -142 0
135 136 -142 0
-135 136 142 0
137 -138 143 0
-137 -138 -143 0
137 138 -143 0
-137 138 143 0
139 -140 144 0
-139 -140 -144 0
139 140 -144 0
-139 140 144 0
141 -142 145 0
-141 -142 -145 0
141 142 -145 0
-141 142 145 0
-143 -144 145 0
143 -144 -145 0
-143 144 -145 0
143 144 145 0
1 -2 146 0
-1 -2 -146 0
1 2 -146 0
-1 2 146 0
-5 6 147 0
5 6 -147 0
-5 -6 -147 0
5 -6 147 0
10 12 148 0
-10 12 -148 0
10 -12 -148 0
-10 -12 148 0
-14 19 149 0
14 19 -149 0
-14 -19 -149 0
14 -19 149 0
20 -23 150 0
-20 -23 -150 0
20 23 -150 0
-20 23 150 0
24 25 151 0
-24 25 -151 0
24 -25 -151 0
-24 -25 151 0
32 38 152 0
-32 38 -152 0
32 -38 -152 0
-32 -38 152 0
39 41 153 0
-39 41 -153 0
39 -41 -153 0
-39 -41 153 0
-43 46 154 0
43 46 -154 0
-43 -46 -154 0
43 -46 154 0
146 -147 155 0
-146 -147 -155 0
146 147 -155 0
-146 147 155 0
148 -149 156 0
-148 -149 -156 0
148 149 -156 0
-148 149 156 0
150 -151 157 0
-150 -151 -157 0
150 151 -157 0
-150 151 157 0
152 -153 158 0
-152 -153 -158 0
152 153 -158 0
-152 153 158 0
154 -155 159 0
-154 -155 -159 0
154 155 -159 0
-154 155 159 0
156 -157 160 0
-156 -157 -160 0
156 157 -160 0
-156 157 160 0
-158 -159 160 0
158 -159 -160 0
-158 159 -160 0
158 159 160 0
-2 -4 161 0
2 -4 -161 0
-2 4 -161 0
2 4 161 0
5 6 162 0
-5 6 -162 0
5 -6 -162 0
-5 -6 162 0
-8 -9 163 0
8 -9 -163 0
-8 9 -163 0
8 9 163 0
-11 14 164 0
11 14 -164 0
-11 -14 -164 0
11 -14 164 0
-16 -17 165 0
16 -17 -165 0
-16 17 -165 0
16 17 165 0
-19 20 166 0
19 20 -166 0
-19 -20 -166 0
19 -20 166 0
-21 22 167 0
21 22 -167 0
-21 -22 -167 0
21 -22 167 0
24 25 168 0
-24 25 -168 0
24 -25 -168 0
-24 -25 168 0
-26 -28 169 0
26 -28 -169 0
-26 28 -169 0
26 28 169 0
-29 30 170 0
29 30 -170 0
-29 -30 -170 0
29 -30 170 0
-31 32 171 0
31 32 -171 0
-31 -32 -171 0
31 -32 171 0
-35 -36 172 0
35 -36 -172 0
-35 36 -172 0
35 36 172 0
37 38 173 0
-37 38 -173 0
37 -38 -173 0
-37 -38 173 0
42 46 174 0
-42 46 -174 0
42 -46 -174 0
-42 -46 174 0
-47 -48 175 0
47 -48 -175 0
-47 48 -175 0
47 48 175 0
160 -161 176 0
-160 -161 -176 0
160 161 -176 0
-160 161 176 0
162 -163 177 0
-162 -163 -177 0
162 163 -177 0
-162 163 177 0
164 -165 178 0
-164 -165 -178 0
164 165 -178 0
-164 165 178 0
166 -167 179 0
-166 -167 -179 0
166 167 -179 0
-166 167 179 0
168 -169 180 0
-168 -169 -180 0
168 169 -180 0
-168 169 180 0
170 -171 181 0
-170 -171 -181 0
170 171 -181 0
-170 171 181 0
172 -173 182 0
-172 -173 -182 0
172 173 -182 0
-172 173 182 0
174 -175 183 0
-174 -175 -183 0
174 175 -183 0
-174 175 183 0
176 -177 184 0
-176 -177 -184 0
176 177 -184 0
-176 177 184 0
178 -179 185 0
-178 -179 -185 0
178 179 -185 0
-178 179 185 0
180 -181 186 0
-180 -181 -186 0
180 181 -186 0
-180 181 186 0
182 -183 187 0
-182 -183 -187 0
182 183 -187 0
-182 183 187 0
184 -185 188 0
-184 -185 -188 0
184 185 -188 0
-184 185 188 0
186 -187 189 0
-186 -187 -189 0
186 187 -189 0
-186 187 189 0
188 189 0
-188 -189 0
-1 2 190 0
1 2 -190 0
-1 -2 -190 0
1 -2 190 0
-3 -4 191 0
3 -4 -191 0
-3 4 -191 0
3 4 191 0
5 6 192 0
-5 6 -192 0
5 -6 -192 0
-5 -6 192 0
-7 9 193 0
7 9 -193 0
-7 -9 -193 0
7 -9 193 0
11 -14 194 0
-11 -14 -194 0
11 14 -194 0
-11 14 194 0
-15 -18 195 0
15 -18 -195 0
-15 18 -195 0
15 18 195 0
-25 -26 196 0
25 -26 -196 0
-25 26 -196 0
25 26 196 0
29 -32 197 0
-29 -32 -197 0
29 32 -197 0
-29 32 197 0
33 -34 198 0
-33 -34 -198 0
33 34 -198 0
-33 34 198 0
36 -37 199 0
-36 -37 -199 0
36 37 -199 0
-36 37 199 0
39 -40 200 0
-39 -40 -200 0
39 40 -200 0
-39 40 200 0
42 43 201 0
-42 43 -201 0
42 -43 -201 0
-42 -43 201 0
-44 45 202 0
44 45 -202 0
-44 -45 -202 0
44 -45 202 0
47 49 203 0
-47 49 -203 0
47 -49 -203 0
-47 -49 203 0
189 -190 204 0
-189 -190 -204 0
189 190 -204 0
-189 190 204 0
191 -192 205 0
-191 -192 -205 0
191 192 -205 0
-191 192 205 0
193 -194 206 0
-193 -194 -206 0
193 194 -206 0
-193 194 206 0
195 -196 207 0
-195 -196 -207 0
195 196 -207 0
-195 196 207 0
197 -198 208 0
-197 -198 -208 0
197 198 -208 0
-197 198 208 0
199 -200 209 0
-199 -200 -209 0
199 200 -209 0
-199 200 209 0
201 -202 210 0
-201 -202 -210 0
201 202 -210 0
-201 202 210 0
203 -204 211 0
-203 -204 -211 0
203 204 -211 0
-203 204 211 0
205 -206 212 0
-205 -206 -212 0
205 206 -212 0
-205 206 212 0
207 -208 213 0
-207 -208 -213 0
207 208 -213 0
-207 208 213 0
209 -210 214 0
-209 -210 -214 0
209 210 -214 0
-209 210 214 0
211 -212 215 0
-211 -212 -215 0
211 212 -215 0
-211 212 215 0
213 -214 216 0
-213 -214 -216 0
213 214 -216 0
-213 214 216 0
215 216 0
-215 -216 0
1 -2 217 0
-1 -2 -217 0
1 2 -217 0
-1 2 217 0
4 -10 218 0
-4 -10 -218 0
4 10 -218 0
-4 10 218 0
-11 -13 219 0
11 -13 -219 0
-11 13 -219 0
11 13 219 0
15 16 220 0
-15 16 -220 0
15 -16 -220 0
-15 -16 220 0
-17 -18 221 0
17 -18 -221 0
-17 18 -221 0
17 18 221 0
-19 -25 222 0
19 -25 -222 0
-19 25 -222 0
19 25 222 0
26 -27 223 0
-26 -27 -223 0
26 27 -223 0
-26 27 223 0
28 29 224 0
-28 29 -224 0
28 -29 -224 0
-28 -29 224 0
30 -32 225 0
-30 -32 -225 0
30 32 -225 0
-30 32 225 0
33 35 226 0
-33 35 -226 0
33 -35 -226 0
-33 -35 226 0
-37 38 227 0
37 38 -227 0
-37 -38 -227 0
37 -38 227 0
-39 43 228 0
39 43 -228 0
-39 -43 -228 0
39 -43 228 0
44 -46 229 0
-44 -46 -229 0
44 46 -229 0
-44 46 229 0
47 -49 230 0
-47 -49 -230 0
47 49 -230 0
-47 49 230 0
216 -217 231 0
-216 -217 -231 0
216 217 -231 0
-216 217 231 0
218 -219 232 0
-218 -219 -232 0
218 219 -232 0
-218 219 232 0
220 -221 233 0
-220 -221 -233 0
220 221 -233 0
-220 221 233 0
222 -223 234 0
-222 -223 -234 0
222 223 -234 0
-222 223 234 0
224 -225 235 0
-224 -225 -235 0
224 225 -235 0
-224 225 235 0
226 -227 236 0
-226 -227 -236 0
226 227 -236 0
-226 227 236 0
228 -229 237 0
-228 -229 -237 0
228 229 -237 0
-228 229 237 0
230 -231 238 0
-230 -231 -238 0
230 231 -238 0
-230 231 238 0
232 -233 239 0
-232 -233 -239 0
232 233 -239 0
-232 233 239 0
234 -235 240 0
-234 -235 -240 0
234 235 -240 0
-234 235 240 0
236 -237 241 0
-236 -237 -241 0
236 237 -241 0
-236 237 241 0
238 -239 242 0
-238 -239 -242 0
238 239 -242 0
-238 239 242 0
240 -241 243 0
-240 -241 -243 0
240 241 -243 0
-240 241 243 0
242 243 0
-242 -243 0
2 -5 244 0
-2 -5 -244 0
2 5 -244 0
-2 5 244 0
-6 -10 245 0
6 -10 -245 0
-6 10 -245 0
6 10 245 0
-11 -12 246 0
11 -12 -246 0
-11 12 -246 0
11 12 246 0
-14 -17 247 0
14 -17 -247 0
-14 17 -247 0
14 17 247 0
-19 -20 248 0
19 -20 -248 0
-19 20 -248 0
19 20 248 0
-26 27 249 0
26 27 -249 0
-26 -27 -249 0
26 -27 249 0
28 -29 250 0
-28 -29 -250 0
28 29 -250 0
-28 29 250 0
33 36 251 0
-33 36 -251 0
33 -36 -251 0
-33 -36 251 0
37 -44 252 0
-37 -44 -252 0
37 44 -252 0
-37 44 252 0
-47 -48 253 0
47 -48 -253 0
-47 48 -253 0
47 48 253 0
49 -50 254 0
-49 -50 -254 0
49 50 -254 0
-49 50 254 0
244 -245 255 0
-244 -245 -255 0
244 245 -255 0
-244 245 255 0
246 -247 256 0
-246 -247 -256 0
246 247 -256 0
-246 247 256 0
248 -249 257 0
-248 -249 -257 0
248 249 -257 0
-248 249 257 0
250 -251 258 0
-250 -251 -258 0
250 251 -258 0
-250 251 258 0
252 -253 259 0
-252 -253 -259 0
252 253 -259 0
-252 253 259 0
254 -255 260 0
-254 -255 -260 0
254 255 -260 0
-254 255 260 0
256 -257 261 0
-256 -257 -261 0
256 257 -261 0
-256 257 261 0
258 -259 262 0
-258 -259 -262 0
258 259 -262 0
-258 259 262 0
-260 -261 262 0
260 -261 -262 0
-260 261 -262 0
260 261 262 0
-1 5 263 0
1 5 -263 0
-1 -5 -263 0
1 -5 263 0
6 -8 264 0
-6 -8 -264 0
6 8 -264 0
-6 8 264 0
-9 11 265 0
9 11 -265 0
-9 -11 -265 0
9 -11 265 0
12 13 266 0
-12 13 -266 0
12 -13 -266 0
-12 -13 266 0
15 17 267 0
-15 17 -267 0
15 -17 -267 0
-15 -17 267 0
-19 -20 268 0
19 -20 -268 0
-19 20 -268 0
19 20 268 0
-21 -22 269 0
21 -22 -269 0
-21 22 -269 0
21 22 269 0
-23 24 270 0
23 24 -270 0
-23 -24 -270 0
23 -24 270 0
27 28 271 0
-27 28 -271 0
27 -28 -271 0
-27 -28 271 0
29 -31 272 0
-29 -31 -272 0
29 31 -272 0
-29 31 272 0
-33 34 273 0
33 34 -273 0
-33 -34 -273 0
33 -34 273 0
35 -39 274 0
-35 -39 -274 0
35 39 -274 0
-35 39 274 0
40 -41 275 0
-40 -41 -275 0
40 41 -275 0
-40 41 275 0
-42 -43 276 0
42 -43 -276 0
-42 43 -276 0
42 43 276 0
-45 47 277 0
45 47 -277 0
-45 -47 -277 0
45 -47 277 0
48 49 278 0
-48 49 -278 0
48 -49 -278 0
-48 -49 278 0
262 -263 279 0
-262 -263 -279 0
262 263 -279 0
-262 263 279 0
264 -265 280 0
-264 -265 -280 0
264 265 -280 0
-264 265 280 0
266 -267 281 0
-266 -267 -281 0
266 267 -281 0
-266 267 281 0
268 -269 282 0
-268 -269 -282 0
268 269 -282 0
-268 269 282 0
270 -271 283 0
-270 -271 -283 0
270 271 -283 0
-270 271 283 0
272 -273 284 0
-272 -273 -284 0
272 273 -284 0
-272 273 284 0
274 -275 285 0
-274 -275 -285 0
274 275 -285 0
-274 275 285 0
276 -277 286 0
-276 -277 -286 0
276 277 -286 0
-276 277 286 0
278 -279 287 0
-278 -279 -287 0
278 279 -287 0
-278 279 287 0
280 -281 288 0
-280 -281 -288 0
280 281 -288 0
-280 281 288 0
282 -283 289 0
-282 -283 -289 0
282 283 -289 0
-282 283 289 0
284 -285 290 0
-284 -285 -290 0
284 285 -290 0
-284 285 290 0
286 -287 291 0
-286 -287 -291 0
286 287 -291 0
-286 287 291 0
288 -289 292 0
-288 -289 -292 0
288 289 -292 0
-288 289 292 0
-290 -291 292 0
290 -291 -292 0
-290 291 -292 0
290 291 292 0
-12 293 0
-24 293 0
-12 -24 294 0
-23 293 0
-12 -23 294 0
-24 -23 294 0
-12 -24 -23 295 0
-22 296 0
-21 296 0
-22 -21 297 0
-20 296 0
-22 -20 297 0
-21 -20 297 0
-22 -21 -20 298 0
-293 299 0
-294 300 0
-295 301 0
-296 299 0
-297 300 0
-298 301 0
-293 -296 300 0
-293 -297 301 0
-293 -298 302 0
-294 -296 301 0
-294 -297 302 0
-294 -298 303 0
-295 -296 302 0
-295 -297 303 0
-295 -298 304 0
-19 305 0
-18 305 0
-19 -18 306 0
-17 305 0
-19 -17 306 0
-18 -17 306 0
-19 -18 -17 307 0
-16 308 0
-15 308 0
-16 -15 309 0
-14 308 0
-16 -14 309 0
-15 -14 309 0
-16 -15 -14 310 0
-305 311 0
-306 312 0
-307 313 0
-308 311 0
-309 312 0
-310 313 0
-305 -308 312 0
-305 -309 313 0
-305 -310 314 0
-306 -308 313 0
-306 -309 314 0
-306 -310 315 0
-307 -308 314 0
-307 -309 315 0
-307 -310 316 0
-13 317 0
-25 317 0
-13 -25 318 0
-11 317 0
-13 -11 318 0
-25 -11 318 0
-13 -25 -11 319 0
-10 320 0
-9 320 0
-10 -9 321 0
-8 320 0
-10 -8 321 0
-9 -8 321 0
-10 -9 -8 322 0
-317 323 0
-318 324 0
-319 325 0
-320 323 0
-321 324 0
-322 325 0
-317 -320 324 0
-317 -321 325 0
-317 -322 326 0
-318 -320 325 0
-318 -321 326 0
-318 -322 327 0
-319 -320 326 0
-319 -321 327 0
-319 -322 328 0
-7 329 0
-6 329 0
-7 -6 330 0
-5 329 0
-7 -5 330 0
-6 -5 330 0
-7 -6 -5 331 0
-4 332 0
-3 332 0
-4 -3 333 0
-2 334 0
-1 334 0
-2 -1 335 0
-37 334 0
-2 -37 335 0
-1 -37 335 0
-2 -1 -37 336 0
-332 337 0
-333 338 0
-334 337 0
-335 338 0
-336 339 0
-332 -334 338 0
-332 -335 339 0
-332 -336 340 0
-333 -334 339 0
-333 -335 340 0
-333 -336 341 0
-329 342 0
-330 343 0
-331 344 0
-337 342 0
-338 343 0
-339 344 0
-340 345 0
-341 346 0
-329 -337 343 0
-329 -338 344 0
-329 -339 345 0
-329 -340 346 0
-329 -341 347 0
-330 -337 344 0
-330 -338 345 0
-330 -339 346 0
-330 -340 347 0
-330 -341 348 0
-331 -337 345 0
-331 -338 346 0
-331 -339 347 0
-331 -340 348 0
-331 -341 349 0
-49 350 0
-48 350 0
-49 -48 351 0
-47 350 0
-49 -47 351 0
-48 -47 351 0
-49 -48 -47 352 0
-46 353 0
-45 353 0
-46 -45 354 0
-44 355 0
-43 355 0
-44 -43 356 0
-42 355 0
-44 -42 356 0
-43 -42 356 0
-44 -43 -42 357 0
-353 358 0
-354 359 0
-355 358 0
-356 359 0
-357 360 0
-353 -355 359 0
-353 -356 360 0
-353 -357 361 0
-354 -355 360 0
-354 -356 361 0
-354 -357 362 0
-350 363 0
-351 364 0
-352 365 0
-358 363 0
-359 364 0
-360 365 0
-361 366 0
-362 367 0
-350 -358 364 0
-350 -359 365 0
-350 -360 366 0
-350 -361 367 0
-350 -362 368 0
-351 -358 365 0
-351 -359 366 0
-351 -360 367 0
-351 -361 368 0
-351 -362 369 0
-352 -358 366 0
-352 -359 367 0
-352 -360 368 0
-352 -361 369 0
-352 -362 370 0
-41 371 0
-40 371 0
-41 -40 372 0
-39 371 0
-41 -39 372 0
-40 -39 372 0
-41 -40 -39 373 0
-38 374 0
-50 374 0
-38 -50 375 0
-36 376 0
-35 376 0
-36 -35 377 0
-34 376 0
-36 -34 377 0
-35 -34 377 0
-36 -35 -34 378 0
-374 379 0
-375 380 0
-376 379 0
-377 380 0
-378 381 0
-374 -376 380 0
-374 -377 381 0
-374 -378 382 0
-375 -376 381 0
-375 -377 382 0
-375 -378 383 0
-371 384 0
-372 385 0
-373 386 0
-379 384 0
-380 385 0
-381 386 0
-382 387 0
-383 388 0
-371 -379 385 0
-371 -380 386 0
-371 -381 387 0
-371 -382 388 0
-371 -383 389 0
-372 -379 386 0
-372 -380 387 0
-372 -381 388 0
-372 -382 389 0
-372 -383 390 0
-373 -379 387 0
-373 -380 388 0
-373 -381 389 0
-373 -382 390 0
-373 -383 391 0
-33 392 0
-32 392 0
-33 -32 393 0
-31 392 0
-33 -31 393 0
-32 -31 393 0
-33 -32 -31 394 0
-30 395 0
-29 395 0
-30 -29 396 0
-28 397 0
-27 397 0
-28 -27 398 0
-26 397 0
-28 -26 398 0
-27 -26 398 0
-28 -27 -26 399 0
-395 400 0
-396 401 0
-397 400 0
-398 401 0
-399 402 0
-395 -397 401 0
-395 -398 402 0
-395 -399 403 0
-396 -397 402 0
-396 -398 403 0
-396 -399 404 0
-392 405 0
-393 406 0
-394 407 0
-400 405 0
-401 406 0
-402 407 0
-403 408 0
-404 409 0
-392 -400 406 0
-392 -401 407 0
-392 -402 408 0
-392 -403 409 0
-392 -404 410 0
-393 -400 407 0
-393 -401 408 0
-393 -402 409 0
-393 -403 410 0
-393 -404 411 0
-394 -400 408 0
-394 -401 409 0
-394 -402 410 0
-394 -403 411 0
-394 -404 412 0
-384 413 0
-386 414 0
-388 415 0
-390 416 0
-405 413 0
-407 414 0
-409 415 0
-411 416 0
-384 -405 414 0
-384 -407 415 0
-384 -409 416 0
-384 -411 417 0
-386 -405 415 0
-386 -407 416 0
-386 -409 417 0
-386 -411 418 0
-388 -405 416 0
-388 -407 417 0
-388 -409 418 0
-390 -405 417 0
-390 -407 418 0
-385 419 0
-389 420 0
-406 419 0
-410 420 0
-385 -406 420 0
-385 -410 421 0
-389 -406 421 0
-387 422 0
-391 423 0
-408 422 0
-412 423 0
-387 -408 423 0
-420 424 0
-422 424 0
-420 -422 425 0
-421 426 0
-423 426 0
-421 -423 427 0
-414 428 0
-419 428 0
-414 -419 429 0
-415 430 0
-424 430 0
-415 -424 431 0
-416 432 0
-425 432 0
-416 -425 433 0
-417 434 0
-426 434 0
-417 -426 435 0
-418 436 0
-427 436 0
-418 -427 437 0
-363 438 0
-365 439 0
-367 440 0
-369 441 0
-413 438 0
-429 439 0
-431 440 0
-433 441 0
-435 442 0
-437 443 0
-363 -413 439 0
-363 -429 440 0
-363 -431 441 0
-363 -433 442 0
-363 -435 443 0
-365 -413 440 0
-365 -429 441 0
-365 -431 442 0
-365 -433 443 0
-367 -413 441 0
-367 -429 442 0
-367 -431 443 0
-369 -413 442 0
-369 -429 443 0
-364 444 0
-368 445 0
-428 444 0
-432 445 0
-436 446 0
-364 -428 445 0
-364 -432 446 0
-368 -428 446 0
-366 447 0
-370 448 0
-430 447 0
-434 448 0
-366 -430 448 0
-445 449 0
-447 449 0
-445 -447 450 0
-446 451 0
-448 451 0
-446 -448 452 0
-439 453 0
-444 453 0
-439 -444 454 0
-440 455 0
-449 455 0
-440 -449 456 0
-441 457 0
-450 457 0
-441 -450 458 0
-442 459 0
-451 459 0
-442 -451 460 0
-443 461 0
-452 461 0
-443 -452 462 0
-342 463 0
-344 464 0
-346 465 0
-348 466 0
-438 463 0
-454 464 0
-456 465 0
-458 466 0
-460 467 0
-462 468 0
-342 -438 464 0
-342 -454 465 0
-342 -456 466 0
-342 -458 467 0
-342 -460 468 0
-344 -438 465 0
-344 -454 466 0
-344 -456 467 0
-344 -458 468 0
-346 -438 466 0
-346 -454 467 0
-346 -456 468 0
-348 -438 467 0
-348 -454 468 0
-343 469 0
-347 470 0
-453 469 0
-457 470 0
-461 471 0
-343 -453 470 0
-343 -457 471 0
-347 -453 471 0
-345 472 0
-349 473 0
-455 472 0
-459 473 0
-345 -455 473 0
-470 474 0
-472 474 0
-470 -472 475 0
-471 476 0
-473 476 0
-471 -473 477 0
-464 478 0
-469 478 0
-464 -469 479 0
-465 480 0
-474 480 0
-465 -474 481 0
-466 482 0
-475 482 0
-466 -475 483 0
-467 484 0
-476 484 0
-467 -476 485 0
-468 486 0
-477 486 0
-468 -477 487 0
-323 488 0
-325 489 0
-327 490 0
-463 488 0
-479 489 0
-481 490 0
-483 491 0
-485 492 0
-487 493 0
-323 -463 489 0
-323 -479 490 0
-323 -481 491 0
-323 -483 492 0
-323 -485 493 0
-325 -463 490 0
-325 -479 491 0
-325 -481 492 0
-325 -483 493 0
-327 -463 491 0
-327 -479 492 0
-327 -481 493 0
-324 494 0
-326 495 0
-328 496 0
-478 494 0
-480 495 0
-482 496 0
-484 497 0
-486 498 0
-324 -478 495 0
-324 -480 496 0
-324 -482 497 0
-324 -484 498 0
-326 -478 496 0
-326 -480 497 0
-326 -482 498 0
-328 -478 497 0
-328 -480 498 0
-489 499 0
-494 499 0
-489 -494 500 0
-490 501 0
-495 501 0
-490 -495 502 0
-491 503 0
-496 503 0
-491 -496 504 0
-492 505 0
-497 505 0
-492 -497 506 0
-493 507 0
-498 507 0
-493 -498 508 0
-311 509 0
-313 510 0
-315 511 0
-488 509 0
-500 510 0
-502 511 0
-504 512 0
-506 513 0
-508 514 0
-311 -488 510 0
-311 -500 511 0
-311 -502 512 0
-311 -504 513 0
-311 -506 514 0
-313 -488 511 0
-313 -500 512 0
-313 -502 513 0
-313 -504 514 0
-315 -488 512 0
-315 -500 513 0
-315 -502 514 0
-312 515 0
-314 516 0
-316 517 0
-499 515 0
-501 516 0
-503 517 0
-505 518 0
-507 519 0
-312 -499 516 0
-312 -501 517 0
-312 -503 518 0
-312 -505 519 0
-314 -499 517 0
-314 -501 518 0
-314 -503 519 0
-316 -499 518 0
-316 -501 519 0
-510 520 0
-515 520 0
-510 -515 521 0
-511 522 0
-516 522 0
-511 -516 523 0
-512 524 0
-517 524 0
-512 -517 525 0
-513 526 0
-518 526 0
-513 -518 527 0
-514 528 0
-519 528 0
-514 -519 529 0
-299 530 0
-301 531 0
-303 532 0
-509 530 0
-521 531 0
-523 532 0
-525 533 0
-527 534 0
-529 535 0
-299 -509 531 0
-299 -521 532 0
-299 -523 533 0
-299 -525 534 0
-299 -527 535 0
-301 -509 532 0
-301 -521 533 0
-301 -523 534 0
-301 -525 535 0
-303 -509 533 0
-303 -521 534 0
-303 -523 535 0
-300 536 0
-302 537 0
-304 538 0
-520 536 0
-522 537 0
-524 538 0
-526 539 0
-528 540 0
-300 -520 537 0
-300 -522 538 0
-300 -524 539 0
-300 -526 540 0
-302 -520 538 0
-302 -522 539 0
-302 -524 540 0
-304 -520 539 0
-304 -522 540 0
-531 541 0
-536 541 0
-531 -536 542 0
-532 543 0
-537 543 0
-532 -537 544 0
-533 545 0
-538 545 0
-533 -538 546 0
-534 547 0
-539 547 0
-534 -539 548 0
-535 549 0
-540 549 0
-535 -540 550 0
-550 0
